p cnf 195 757
c p weight 10 1 0
c p weight -10 1 0
c p weight 11 0 0
c p weight -11 1 0
c p weight 12 -1 0
c p weight -12 1 0
c p weight 14 6.12323399573676603586882014729198302312846062338790031898128063403419218957424163818359375E-17 0
c p weight -14 1 0
c p weight 15 1 0
c p weight -15 1 0
c p weight 16 -1 0
c p weight -16 1 0
c p weight 18 -0.707106781186547461715008466853760182857513427734375 0
c p weight -18 1 0
c p weight 19 0.70710678118654757273731092936941422522068023681640625 0
c p weight -19 1 0
c p weight 20 -1 0
c p weight -20 1 0
c p weight 22 6.12323399573676603586882014729198302312846062338790031898128063403419218957424163818359375E-17 0
c p weight -22 1 0
c p weight 23 1 0
c p weight -23 1 0
c p weight 24 -1 0
c p weight -24 1 0
c p weight 26 -1 0
c p weight -26 1 0
c p weight 27 3.673940397442059375002259206809000622711899723162043418511757408850826323032379150390625E-16 0
c p weight -27 1 0
c p weight 28 -1 0
c p weight -28 1 0
c p weight 30 -1 0
c p weight -30 1 0
c p weight 32 6.12323399573676603586882014729198302312846062338790031898128063403419218957424163818359375E-17 0
c p weight -32 1 0
c p weight 33 1 0
c p weight -33 1 0
c p weight 34 -1 0
c p weight -34 1 0
c p weight 36 -1 0
c p weight -36 1 0
c p weight 38 1 0
c p weight -38 1 0
c p weight 39 0 0
c p weight -39 1 0
c p weight 40 -1 0
c p weight -40 1 0
c p weight 42 6.12323399573676603586882014729198302312846062338790031898128063403419218957424163818359375E-17 0
c p weight -42 1 0
c p weight 43 1 0
c p weight -43 1 0
c p weight 44 -1 0
c p weight -44 1 0
c p weight 46 -0.577350269189625731058868041145615279674530029296875 0
c p weight -46 1 0
c p weight 47 0.8164965809277260344600790631375275552272796630859375 0
c p weight -47 1 0
c p weight 48 -1 0
c p weight -48 1 0
c p weight 50 6.12323399573676603586882014729198302312846062338790031898128063403419218957424163818359375E-17 0
c p weight -50 1 0
c p weight 51 1 0
c p weight -51 1 0
c p weight 52 -1 0
c p weight -52 1 0
c p weight 54 -1 0
c p weight -54 1 0
c p weight 55 3.673940397442059375002259206809000622711899723162043418511757408850826323032379150390625E-16 0
c p weight -55 1 0
c p weight 56 -1 0
c p weight -56 1 0
c p weight 58 -1 0
c p weight -58 1 0
c p weight 60 6.12323399573676603586882014729198302312846062338790031898128063403419218957424163818359375E-17 0
c p weight -60 1 0
c p weight 61 1 0
c p weight -61 1 0
c p weight 62 -1 0
c p weight -62 1 0
c p weight 64 -1 0
c p weight -64 1 0
c p weight 66 1 0
c p weight -66 1 0
c p weight 67 0 0
c p weight -67 1 0
c p weight 68 -1 0
c p weight -68 1 0
c p weight 70 6.12323399573676603586882014729198302312846062338790031898128063403419218957424163818359375E-17 0
c p weight -70 1 0
c p weight 71 1 0
c p weight -71 1 0
c p weight 72 -1 0
c p weight -72 1 0
c p weight 74 -0.499999999999999833466546306226518936455249786376953125 0
c p weight -74 1 0
c p weight 75 0.86602540378443870761060452423407696187496185302734375 0
c p weight -75 1 0
c p weight 76 -1 0
c p weight -76 1 0
c p weight 78 6.12323399573676603586882014729198302312846062338790031898128063403419218957424163818359375E-17 0
c p weight -78 1 0
c p weight 79 1 0
c p weight -79 1 0
c p weight 80 -1 0
c p weight -80 1 0
c p weight 82 -1 0
c p weight -82 1 0
c p weight 83 3.673940397442059375002259206809000622711899723162043418511757408850826323032379150390625E-16 0
c p weight -83 1 0
c p weight 84 -1 0
c p weight -84 1 0
c p weight 86 -1 0
c p weight -86 1 0
c p weight 88 6.12323399573676603586882014729198302312846062338790031898128063403419218957424163818359375E-17 0
c p weight -88 1 0
c p weight 89 1 0
c p weight -89 1 0
c p weight 90 -1 0
c p weight -90 1 0
c p weight 92 -1 0
c p weight -92 1 0
c p weight 93 -1 0
c p weight -93 1 0
c p weight 96 -1 0
c p weight -96 1 0
c p weight 98 -1 0
c p weight -98 1 0
c p weight 100 6.12323399573676603586882014729198302312846062338790031898128063403419218957424163818359375E-17 0
c p weight -100 1 0
c p weight 101 1 0
c p weight -101 1 0
c p weight 102 -1 0
c p weight -102 1 0
c p weight 104 -1 0
c p weight -104 1 0
c p weight 106 1 0
c p weight -106 1 0
c p weight 107 0 0
c p weight -107 1 0
c p weight 108 -1 0
c p weight -108 1 0
c p weight 110 6.12323399573676603586882014729198302312846062338790031898128063403419218957424163818359375E-17 0
c p weight -110 1 0
c p weight 111 1 0
c p weight -111 1 0
c p weight 112 -1 0
c p weight -112 1 0
c p weight 114 -0.500000000000000444089209850062616169452667236328125 0
c p weight -114 1 0
c p weight 115 -0.86602540378443837454369713668711483478546142578125 0
c p weight -115 1 0
c p weight 116 -1 0
c p weight -116 1 0
c p weight 118 6.12323399573676603586882014729198302312846062338790031898128063403419218957424163818359375E-17 0
c p weight -118 1 0
c p weight 119 1 0
c p weight -119 1 0
c p weight 120 -1 0
c p weight -120 1 0
c p weight 122 -1 0
c p weight -122 1 0
c p weight 123 3.673940397442059375002259206809000622711899723162043418511757408850826323032379150390625E-16 0
c p weight -123 1 0
c p weight 124 -1 0
c p weight -124 1 0
c p weight 127 -1 0
c p weight -127 1 0
c p weight 129 -1 0
c p weight -129 1 0
c p weight 131 6.12323399573676603586882014729198302312846062338790031898128063403419218957424163818359375E-17 0
c p weight -131 1 0
c p weight 132 1 0
c p weight -132 1 0
c p weight 133 -1 0
c p weight -133 1 0
c p weight 135 -1 0
c p weight -135 1 0
c p weight 137 1 0
c p weight -137 1 0
c p weight 138 0 0
c p weight -138 1 0
c p weight 139 -1 0
c p weight -139 1 0
c p weight 141 6.12323399573676603586882014729198302312846062338790031898128063403419218957424163818359375E-17 0
c p weight -141 1 0
c p weight 142 1 0
c p weight -142 1 0
c p weight 143 -1 0
c p weight -143 1 0
c p weight 145 -0.57735026918962562003656557862996123731136322021484375 0
c p weight -145 1 0
c p weight 146 -0.81649658092772614548238152565318159759044647216796875 0
c p weight -146 1 0
c p weight 147 -1 0
c p weight -147 1 0
c p weight 149 6.12323399573676603586882014729198302312846062338790031898128063403419218957424163818359375E-17 0
c p weight -149 1 0
c p weight 150 1 0
c p weight -150 1 0
c p weight 151 -1 0
c p weight -151 1 0
c p weight 153 -1 0
c p weight -153 1 0
c p weight 154 3.673940397442059375002259206809000622711899723162043418511757408850826323032379150390625E-16 0
c p weight -154 1 0
c p weight 155 -1 0
c p weight -155 1 0
c p weight 158 -1 0
c p weight -158 1 0
c p weight 160 -1 0
c p weight -160 1 0
c p weight 162 6.12323399573676603586882014729198302312846062338790031898128063403419218957424163818359375E-17 0
c p weight -162 1 0
c p weight 163 1 0
c p weight -163 1 0
c p weight 164 -1 0
c p weight -164 1 0
c p weight 166 -1 0
c p weight -166 1 0
c p weight 168 1 0
c p weight -168 1 0
c p weight 169 0 0
c p weight -169 1 0
c p weight 170 -1 0
c p weight -170 1 0
c p weight 172 6.12323399573676603586882014729198302312846062338790031898128063403419218957424163818359375E-17 0
c p weight -172 1 0
c p weight 173 1 0
c p weight -173 1 0
c p weight 174 -1 0
c p weight -174 1 0
c p weight 176 -0.7071067811865476837596133918850682675838470458984375 0
c p weight -176 1 0
c p weight 177 -0.707106781186547461715008466853760182857513427734375 0
c p weight -177 1 0
c p weight 178 -1 0
c p weight -178 1 0
c p weight 180 6.12323399573676603586882014729198302312846062338790031898128063403419218957424163818359375E-17 0
c p weight -180 1 0
c p weight 181 1 0
c p weight -181 1 0
c p weight 182 -1 0
c p weight -182 1 0
c p weight 184 -1 0
c p weight -184 1 0
c p weight 185 3.673940397442059375002259206809000622711899723162043418511757408850826323032379150390625E-16 0
c p weight -185 1 0
c p weight 186 -1 0
c p weight -186 1 0
c p weight 189 -1 0
c p weight -189 1 0
c p weight 192 -1 0
c p weight -192 1 0
c p weight 195 -1 0
c p weight -195 1 0
-7 0
-5 0
-3 0
-1 0
9 1 -2 0
-9 1 2 0
-10 1 0
9 -10 -2 0
-9 -10 2 0
9 10 -1 2 0
-9 10 -1 -2 0
-11 1 0
9 -11 2 0
-9 -11 -2 0
9 11 -1 -2 0
-9 11 -1 2 0
-12 1 0
-12 2 0
-12 -9 0
12 9 -1 -2 0
13 -1 9 0
-13 1 9 0
-14 9 0
13 -14 -1 0
-13 -14 1 0
13 14 1 -9 0
-13 14 -1 -9 0
-15 9 0
13 -15 1 0
-13 -15 -1 0
13 15 -1 -9 0
-13 15 1 -9 0
-16 13 0
-16 9 0
-16 -1 0
16 -13 1 -9 0
17 13 -9 0
-17 13 9 0
-18 13 0
17 -18 -9 0
-17 -18 9 0
17 18 -13 9 0
-17 18 -13 -9 0
-19 13 0
17 -19 9 0
-17 -19 -9 0
17 19 -13 -9 0
-17 19 -13 9 0
-20 13 0
-20 9 0
-20 -17 0
20 17 -13 -9 0
21 -13 17 0
-21 13 17 0
-22 17 0
21 -22 -13 0
-21 -22 13 0
21 22 13 -17 0
-21 22 -13 -17 0
-23 17 0
21 -23 13 0
-21 -23 -13 0
21 23 -13 -17 0
-21 23 13 -17 0
-24 21 0
-24 17 0
-24 -13 0
24 -21 13 -17 0
25 21 -17 0
-25 21 17 0
-26 21 0
25 -26 -17 0
-25 -26 17 0
25 26 -21 17 0
-25 26 -21 -17 0
-27 21 0
25 -27 17 0
-25 -27 -17 0
25 27 -21 -17 0
-25 27 -21 17 0
-28 21 0
-28 17 0
-28 -25 0
28 25 -21 -17 0
29 21 -25 0
29 -21 25 0
-29 21 25 0
-29 -21 -25 0
-30 21 0
-30 25 0
30 -21 -25 0
31 -21 29 0
-31 21 29 0
-32 29 0
31 -32 -21 0
-31 -32 21 0
31 32 21 -29 0
-31 32 -21 -29 0
-33 29 0
31 -33 21 0
-31 -33 -21 0
31 33 -21 -29 0
-31 33 21 -29 0
-34 31 0
-34 29 0
-34 -21 0
34 -31 21 -29 0
35 31 -29 0
35 -31 29 0
-35 31 29 0
-35 -31 -29 0
-36 31 0
-36 29 0
36 -31 -29 0
37 3 -4 0
-37 3 4 0
-38 3 0
37 -38 -4 0
-37 -38 4 0
37 38 -3 4 0
-37 38 -3 -4 0
-39 3 0
37 -39 4 0
-37 -39 -4 0
37 39 -3 -4 0
-37 39 -3 4 0
-40 3 0
-40 4 0
-40 -37 0
40 37 -3 -4 0
41 -3 37 0
-41 3 37 0
-42 37 0
41 -42 -3 0
-41 -42 3 0
41 42 3 -37 0
-41 42 -3 -37 0
-43 37 0
41 -43 3 0
-41 -43 -3 0
41 43 -3 -37 0
-41 43 3 -37 0
-44 41 0
-44 37 0
-44 -3 0
44 -41 3 -37 0
45 41 -37 0
-45 41 37 0
-46 41 0
45 -46 -37 0
-45 -46 37 0
45 46 -41 37 0
-45 46 -41 -37 0
-47 41 0
45 -47 37 0
-45 -47 -37 0
45 47 -41 -37 0
-45 47 -41 37 0
-48 41 0
-48 37 0
-48 -45 0
48 45 -41 -37 0
49 -41 45 0
-49 41 45 0
-50 45 0
49 -50 -41 0
-49 -50 41 0
49 50 41 -45 0
-49 50 -41 -45 0
-51 45 0
49 -51 41 0
-49 -51 -41 0
49 51 -41 -45 0
-49 51 41 -45 0
-52 49 0
-52 45 0
-52 -41 0
52 -49 41 -45 0
53 49 -45 0
-53 49 45 0
-54 49 0
53 -54 -45 0
-53 -54 45 0
53 54 -49 45 0
-53 54 -49 -45 0
-55 49 0
53 -55 45 0
-53 -55 -45 0
53 55 -49 -45 0
-53 55 -49 45 0
-56 49 0
-56 45 0
-56 -53 0
56 53 -49 -45 0
57 49 -53 0
57 -49 53 0
-57 49 53 0
-57 -49 -53 0
-58 49 0
-58 53 0
58 -49 -53 0
59 -49 57 0
-59 49 57 0
-60 57 0
59 -60 -49 0
-59 -60 49 0
59 60 49 -57 0
-59 60 -49 -57 0
-61 57 0
59 -61 49 0
-59 -61 -49 0
59 61 -49 -57 0
-59 61 49 -57 0
-62 59 0
-62 57 0
-62 -49 0
62 -59 49 -57 0
63 59 -57 0
63 -59 57 0
-63 59 57 0
-63 -59 -57 0
-64 59 0
-64 57 0
64 -59 -57 0
65 5 -6 0
-65 5 6 0
-66 5 0
65 -66 -6 0
-65 -66 6 0
65 66 -5 6 0
-65 66 -5 -6 0
-67 5 0
65 -67 6 0
-65 -67 -6 0
65 67 -5 -6 0
-65 67 -5 6 0
-68 5 0
-68 6 0
-68 -65 0
68 65 -5 -6 0
69 -5 65 0
-69 5 65 0
-70 65 0
69 -70 -5 0
-69 -70 5 0
69 70 5 -65 0
-69 70 -5 -65 0
-71 65 0
69 -71 5 0
-69 -71 -5 0
69 71 -5 -65 0
-69 71 5 -65 0
-72 69 0
-72 65 0
-72 -5 0
72 -69 5 -65 0
73 69 -65 0
-73 69 65 0
-74 69 0
73 -74 -65 0
-73 -74 65 0
73 74 -69 65 0
-73 74 -69 -65 0
-75 69 0
73 -75 65 0
-73 -75 -65 0
73 75 -69 -65 0
-73 75 -69 65 0
-76 69 0
-76 65 0
-76 -73 0
76 73 -69 -65 0
77 -69 73 0
-77 69 73 0
-78 73 0
77 -78 -69 0
-77 -78 69 0
77 78 69 -73 0
-77 78 -69 -73 0
-79 73 0
77 -79 69 0
-77 -79 -69 0
77 79 -69 -73 0
-77 79 69 -73 0
-80 77 0
-80 73 0
-80 -69 0
80 -77 69 -73 0
81 77 -73 0
-81 77 73 0
-82 77 0
81 -82 -73 0
-81 -82 73 0
81 82 -77 73 0
-81 82 -77 -73 0
-83 77 0
81 -83 73 0
-81 -83 -73 0
81 83 -77 -73 0
-81 83 -77 73 0
-84 77 0
-84 73 0
-84 -81 0
84 81 -77 -73 0
85 77 -81 0
85 -77 81 0
-85 77 81 0
-85 -77 -81 0
-86 77 0
-86 81 0
86 -77 -81 0
87 -77 85 0
-87 77 85 0
-88 85 0
87 -88 -77 0
-87 -88 77 0
87 88 77 -85 0
-87 88 -77 -85 0
-89 85 0
87 -89 77 0
-87 -89 -77 0
87 89 -77 -85 0
-87 89 77 -85 0
-90 87 0
-90 85 0
-90 -77 0
90 -87 77 -85 0
91 87 -85 0
91 -87 85 0
-91 87 85 0
-91 -87 -85 0
-92 87 0
-92 85 0
92 -87 -85 0
93 -8 0
-93 8 0
94 7 -87 0
94 -7 87 0
-94 7 87 0
-94 -7 -87 0
95 8 -91 0
95 -8 91 0
-95 8 91 0
-95 -8 -91 0
-96 7 0
-96 91 0
-96 87 -8 0
-96 -87 8 0
96 -7 87 8 -91 0
96 -7 -87 -8 -91 0
97 94 -91 0
97 -94 91 0
-97 94 91 0
-97 -94 -91 0
-98 94 0
-98 91 0
98 -94 -91 0
99 -94 97 0
-99 94 97 0
-100 97 0
99 -100 -94 0
-99 -100 94 0
99 100 94 -97 0
-99 100 -94 -97 0
-101 97 0
99 -101 94 0
-99 -101 -94 0
99 101 -94 -97 0
-99 101 94 -97 0
-102 99 0
-102 97 0
-102 -94 0
102 -99 94 -97 0
103 99 -97 0
103 -99 97 0
-103 99 97 0
-103 -99 -97 0
-104 99 0
-104 97 0
104 -99 -97 0
105 99 -103 0
-105 99 103 0
-106 99 0
105 -106 -103 0
-105 -106 103 0
105 106 -99 103 0
-105 106 -99 -103 0
-107 99 0
105 -107 103 0
-105 -107 -103 0
105 107 -99 -103 0
-105 107 -99 103 0
-108 99 0
-108 103 0
-108 -105 0
108 105 -99 -103 0
109 -99 105 0
-109 99 105 0
-110 105 0
109 -110 -99 0
-109 -110 99 0
109 110 99 -105 0
-109 110 -99 -105 0
-111 105 0
109 -111 99 0
-109 -111 -99 0
109 111 -99 -105 0
-109 111 99 -105 0
-112 109 0
-112 105 0
-112 -99 0
112 -109 99 -105 0
113 109 -105 0
-113 109 105 0
-114 109 0
113 -114 -105 0
-113 -114 105 0
113 114 -109 105 0
-113 114 -109 -105 0
-115 109 0
113 -115 105 0
-113 -115 -105 0
113 115 -109 -105 0
-113 115 -109 105 0
-116 109 0
-116 105 0
-116 -113 0
116 113 -109 -105 0
117 -109 113 0
-117 109 113 0
-118 113 0
117 -118 -109 0
-117 -118 109 0
117 118 109 -113 0
-117 118 -109 -113 0
-119 113 0
117 -119 109 0
-117 -119 -109 0
117 119 -109 -113 0
-117 119 109 -113 0
-120 117 0
-120 113 0
-120 -109 0
120 -117 109 -113 0
121 117 -113 0
-121 117 113 0
-122 117 0
121 -122 -113 0
-121 -122 113 0
121 122 -117 113 0
-121 122 -117 -113 0
-123 117 0
121 -123 113 0
-121 -123 -113 0
121 123 -117 -113 0
-121 123 -117 113 0
-124 117 0
-124 113 0
-124 -121 0
124 121 -117 -113 0
125 117 -59 0
125 -117 59 0
-125 117 59 0
-125 -117 -59 0
126 121 -63 0
126 -121 63 0
-126 121 63 0
-126 -121 -63 0
-127 117 0
-127 63 0
-127 59 -121 0
-127 -59 121 0
127 -117 59 121 -63 0
127 -117 -59 -121 -63 0
128 125 -63 0
128 -125 63 0
-128 125 63 0
-128 -125 -63 0
-129 125 0
-129 63 0
129 -125 -63 0
130 -125 128 0
-130 125 128 0
-131 128 0
130 -131 -125 0
-130 -131 125 0
130 131 125 -128 0
-130 131 -125 -128 0
-132 128 0
130 -132 125 0
-130 -132 -125 0
130 132 -125 -128 0
-130 132 125 -128 0
-133 130 0
-133 128 0
-133 -125 0
133 -130 125 -128 0
134 130 -128 0
134 -130 128 0
-134 130 128 0
-134 -130 -128 0
-135 130 0
-135 128 0
135 -130 -128 0
136 130 -134 0
-136 130 134 0
-137 130 0
136 -137 -134 0
-136 -137 134 0
136 137 -130 134 0
-136 137 -130 -134 0
-138 130 0
136 -138 134 0
-136 -138 -134 0
136 138 -130 -134 0
-136 138 -130 134 0
-139 130 0
-139 134 0
-139 -136 0
139 136 -130 -134 0
140 -130 136 0
-140 130 136 0
-141 136 0
140 -141 -130 0
-140 -141 130 0
140 141 130 -136 0
-140 141 -130 -136 0
-142 136 0
140 -142 130 0
-140 -142 -130 0
140 142 -130 -136 0
-140 142 130 -136 0
-143 140 0
-143 136 0
-143 -130 0
143 -140 130 -136 0
144 140 -136 0
-144 140 136 0
-145 140 0
144 -145 -136 0
-144 -145 136 0
144 145 -140 136 0
-144 145 -140 -136 0
-146 140 0
144 -146 136 0
-144 -146 -136 0
144 146 -140 -136 0
-144 146 -140 136 0
-147 140 0
-147 136 0
-147 -144 0
147 144 -140 -136 0
148 -140 144 0
-148 140 144 0
-149 144 0
148 -149 -140 0
-148 -149 140 0
148 149 140 -144 0
-148 149 -140 -144 0
-150 144 0
148 -150 140 0
-148 -150 -140 0
148 150 -140 -144 0
-148 150 140 -144 0
-151 148 0
-151 144 0
-151 -140 0
151 -148 140 -144 0
152 148 -144 0
-152 148 144 0
-153 148 0
152 -153 -144 0
-152 -153 144 0
152 153 -148 144 0
-152 153 -148 -144 0
-154 148 0
152 -154 144 0
-152 -154 -144 0
152 154 -148 -144 0
-152 154 -148 144 0
-155 148 0
-155 144 0
-155 -152 0
155 152 -148 -144 0
156 148 -31 0
156 -148 31 0
-156 148 31 0
-156 -148 -31 0
157 152 -35 0
157 -152 35 0
-157 152 35 0
-157 -152 -35 0
-158 148 0
-158 35 0
-158 31 -152 0
-158 -31 152 0
158 -148 31 152 -35 0
158 -148 -31 -152 -35 0
159 156 -35 0
159 -156 35 0
-159 156 35 0
-159 -156 -35 0
-160 156 0
-160 35 0
160 -156 -35 0
161 -156 159 0
-161 156 159 0
-162 159 0
161 -162 -156 0
-161 -162 156 0
161 162 156 -159 0
-161 162 -156 -159 0
-163 159 0
161 -163 156 0
-161 -163 -156 0
161 163 -156 -159 0
-161 163 156 -159 0
-164 161 0
-164 159 0
-164 -156 0
164 -161 156 -159 0
165 161 -159 0
165 -161 159 0
-165 161 159 0
-165 -161 -159 0
-166 161 0
-166 159 0
166 -161 -159 0
167 161 -165 0
-167 161 165 0
-168 161 0
167 -168 -165 0
-167 -168 165 0
167 168 -161 165 0
-167 168 -161 -165 0
-169 161 0
167 -169 165 0
-167 -169 -165 0
167 169 -161 -165 0
-167 169 -161 165 0
-170 161 0
-170 165 0
-170 -167 0
170 167 -161 -165 0
171 -161 167 0
-171 161 167 0
-172 167 0
171 -172 -161 0
-171 -172 161 0
171 172 161 -167 0
-171 172 -161 -167 0
-173 167 0
171 -173 161 0
-171 -173 -161 0
171 173 -161 -167 0
-171 173 161 -167 0
-174 171 0
-174 167 0
-174 -161 0
174 -171 161 -167 0
175 171 -167 0
-175 171 167 0
-176 171 0
175 -176 -167 0
-175 -176 167 0
175 176 -171 167 0
-175 176 -171 -167 0
-177 171 0
175 -177 167 0
-175 -177 -167 0
175 177 -171 -167 0
-175 177 -171 167 0
-178 171 0
-178 167 0
-178 -175 0
178 175 -171 -167 0
179 -171 175 0
-179 171 175 0
-180 175 0
179 -180 -171 0
-179 -180 171 0
179 180 171 -175 0
-179 180 -171 -175 0
-181 175 0
179 -181 171 0
-179 -181 -171 0
179 181 -171 -175 0
-179 181 171 -175 0
-182 179 0
-182 175 0
-182 -171 0
182 -179 171 -175 0
183 179 -175 0
-183 179 175 0
-184 179 0
183 -184 -175 0
-183 -184 175 0
183 184 -179 175 0
-183 184 -179 -175 0
-185 179 0
183 -185 175 0
-183 -185 -175 0
183 185 -179 -175 0
-183 185 -179 175 0
-186 179 0
-186 175 0
-186 -183 0
186 183 -179 -175 0
187 117 -7 0
187 -117 7 0
-187 117 7 0
-187 -117 -7 0
188 126 -95 0
188 -126 95 0
-188 126 95 0
-188 -126 -95 0
-189 117 0
-189 95 0
-189 7 -126 0
-189 -7 126 0
189 -117 7 126 -95 0
189 -117 -7 -126 -95 0
190 148 -117 0
190 -148 117 0
-190 148 117 0
-190 -148 -117 0
191 157 -188 0
191 -157 188 0
-191 157 188 0
-191 -157 -188 0
-192 148 0
-192 188 0
-192 117 -157 0
-192 -117 157 0
192 -148 117 157 -188 0
192 -148 -117 -157 -188 0
193 179 -148 0
193 -179 148 0
-193 179 148 0
-193 -179 -148 0
194 183 -191 0
194 -183 191 0
-194 183 191 0
-194 -183 -191 0
-195 179 0
-195 191 0
-195 148 -183 0
-195 -148 183 0
195 -179 148 183 -191 0
195 -179 -148 -183 -191 0
-179 0
-193 0
-191 0
-190 0
-188 0
-187 0
-95 0
